53
2 107 90 
2 64 25 
2 109 19 
3 63 69 95 
2 1 5 
3 103 67 34 
2 36 47 
2 48 40 
2 22 56 
3 115 2 41 
3 24 116 84 
2 32 10 
2 30 38 
3 112 61 53 
3 4 46 13 
2 44 35 
2 52 99 
2 3 75 
3 43 106 100 
3 83 96 108 
2 42 37 
2 77 12 
2 87 20 
2 21 27 
2 97 59 
3 18 72 70 
2 79 91 
3 110 11 120 
3 39 60 16 
3 62 33 89 
3 31 81 23 
2 113 104 
2 117 55 
2 71 45 
2 93 26 
2 88 85 
3 73 102 80 
2 17 92 
3 7 94 82 
2 105 51 
2 66 65 
1 86 
2 8 118 
2 74 9 
2 119 28 
1 14 
1 49 
2 98 50 
2 114 29 
2 15 54 
3 76 57 58 
4 111 78 101 6 
1 68 
